#######################################
### Exact MIP solver for the HHCRSP ###
#######################################
-- Instance file: new-instances/HHCRSP_300_60_24_1.2_C_C.txt
-- Max threads: 4
-- Time limit: 999999 seconds
-- Use initial solution: No
Trivial flow violations prevented generating 1174037 variables.
Version identifier: 20.1.0.0 | 2020-11-10 | 9bedb6d68
CPXPARAM_Threads                                 4
CPXPARAM_TimeLimit                               999999
Parallel mode: deterministic, using up to 4 threads for concurrent optimization:
 * Starting dual Simplex on 1 thread...
 * Starting Barrier on 3 threads...
Tried aggregator 1 time.
LP Presolve eliminated 47322 rows and 10932 columns.
Reduced LP has 1299298 rows, 1233776 columns, and 29775041 nonzeros.
Presolve time = 36.93 sec. (6524.92 ticks)
Symmetry aggregator did 2114901 additional substitutions.

Iteration log . . .
Iteration:     1   Dual objective     =             0.000000
Iteration:  1363   Dual objective     =           247.166667

Dual crossover.
  Dual:  Fixing 1371 variables.
     1370 DMoves:  Infeasibility  2.34950948e-12  Objective  2.49333333e+02
        0 DMoves:  Infeasibility  1.05776499e-12  Objective  2.49333333e+02
  Dual:  Pushed 27, exchanged 1344.
  Primal:  Fixing 1185 variables.
     1184 PMoves:  Infeasibility  5.82867088e-16  Objective  2.49333333e+02
        0 PMoves:  Infeasibility  5.82867088e-16  Objective  2.49333333e+02
  Primal:  Pushed 1052, exchanged 133.

Dual simplex solved model.


Solution status from MIP model:
-- Processing time: 60.559 sec.
-- Memory used: 1157.86 MB
-- Best bound: inf
-- Obj value: 249.333
-- Gap: inf%
-- Total distance: 748
-- Total tardiness: 0
-- Largest tardiness: 0
